NAME : n80w200.002.488.tour
COMMENT : Length = 488
COMMENT : Found by LKH [Keld Helsgaun] Tue May  2 05:19:08 2017
TYPE : TOUR
DIMENSION : 81
TOUR_SECTION
1
40
8
70
36
33
47
45
57
48
41
51
49
77
61
39
52
26
59
43
4
42
38
35
14
67
78
71
68
32
19
12
3
31
60
54
66
50
80
46
63
9
29
27
79
15
53
11
7
58
75
72
5
23
10
6
34
76
73
55
44
16
28
13
25
2
22
62
17
20
64
21
24
81
65
37
69
74
18
56
30
-1
EOF
